DIMENSION: 7
EDGE_WEIGHT_TYPE: EXPLICIT
EDGE_WEIGHT_FORMAT: FULL_MATRIX
EDGE_WEIGHT_SECTION:
32767 32767 32767 32767 12 32767 100 
32767 32767 32767 38 32767 25 48 
32767 32767 32767 32767 95 32767 73 
32767 38 32767 32767 32767 32767 32767 
12 32767 95 32767 32767 32767 32767 
32767 25 32767 32767 32767 32767 32767 
100 48 73 32767 32767 32767 32767 
EOF